
%FILE DATA:	Soccer Computational Problem for MiniZinc Models	%
%AUTHOR:	Jack Wall	%
%CONTACT:  	116397063@umail.ucc.ie			%
%LAST UPDATE:	03/03/2020, 16:21:28						%
%DESCRIPTION: 	70 games played with 20 games left				%


n=10; %number of teams

%Games to play
games=[|8,4|8,5|3,4|9,5|1,4|10,9|7,8|5,3|5,7|4,2|3,10|4,7|7,3|1,5|2,5|2,8|3,2|8,1|10,8|7,10|];

%Initial points
iPoints=[24,21,21,17,11,21,16,14,20,18];

%POSITION CONSTRAINTS
% [|teamID, operator, position|...]
% operators index:
%  1 for =  operator
%  2 for >  operator
%  3 for >= operator
%  4 for <  operator
%  5 for <= operator
positionConstraints=[|7,1,1|4,5,2|3,1,3|2,3,4|];